      42        3 
      41       49 
      30       14 
      38       53 
       2       12 
      24        9 
      11       51 
      50       23 
      55       22 
       6       40 
      28       37 
      52       19 
       8       27 
      29        7 
      33       47 
      13       31 
      44       21 
      10       39 
      35        4 
      46       45 
       5       34 
      20       17 
      43       48 
      36       54 
       1       25 
      32       56 
      18       15 
      16       26 
